SAT
40 -23 100 -65 -83 44 60 4 30 -15 76 54 71 -52 17 55 37 5 25 79 85 -35 -10 -94 95 87 61 -67 20 84 32 91 -51 -64 -46 62 -97 9 48 -70 -66 80 42 -24 -28 74 -41 -49 50 27 75 29 11 96 2 -58 -56 -14 26 -88 -73 8 68 -3 -36 86 81 92 -45 1 -77 -21 -99 12 57 31 82 -33 -72 78 -59 98 7 13 6 -90 -16 -69 39 22 89 -53 -43 93 47 -18 34 -63 38 -19 0
